branch-and-cut/resultados/B/b03.sol
138
34
24 27
1 34
16 38
1 49
30 12
14 28
5 22
48 2
5 31
11 20
22 50
4 48
50 39
18 16
41 42
21 12
42 44
4 5
29 37
22 25
9 10
30 32
36 42
10 20
41 29
48 10
13 34
10 13
9 21
37 31
9 18
11 15
9 27
14 50
